67 42 
62 78 
46 58 
20 95 
60 22 
65 62 
69 65 
99 8 
58 96 
23 90 
71 29 
53 49 
31 46 
52 4 
61 79 
2 80 
21 64 
10 68 
74 30 
63 34 
4 80 
49 73 
45 0 
33 3 
96 57 
46 19 
38 51 
69 69 
97 21 
25 10 
1 27 
90 22 
44 52 
42 18 
83 57 
5 87 
37 54 
13 34 
54 98 
90 3 
55 36 
22 45 
87 91 
67 36 
13 92 
47 66 
20 89 
88 64 
94 83 
34 77 
